NAME          
ROWS
 N  OBJ
 L  c1
COLUMNS
    MARKER    'MARKER'                 'INTORG'
    x[1]      c1        455
    x[1]      OBJ       -137
    x[2]      c1        356
    x[2]      OBJ       -252
    x[3]      c1        140
    x[3]      OBJ       -816
    x[4]      c1        428
    x[4]      OBJ       -283
    x[5]      c1        843
    x[5]      OBJ       -263
    x[6]      c1        488
    x[6]      OBJ       -203
    x[7]      c1        563
    x[7]      OBJ       -282
    x[8]      c1        976
    x[8]      OBJ       -115
    x[9]      c1        835
    x[9]      OBJ       -682
    x[10]     c1        334
    x[10]     OBJ       -572
    x[11]     c1        988
    x[11]     OBJ       -479
    x[12]     c1        456
    x[12]     OBJ       -214
    x[13]     c1        17
    x[13]     OBJ       -159
    x[14]     c1        148
    x[14]     OBJ       -915
    x[15]     c1        725
    x[15]     OBJ       -288
    x[16]     c1        413
    x[16]     OBJ       -602
    x[17]     c1        882
    x[17]     OBJ       -562
    x[18]     c1        430
    x[18]     OBJ       -238
    x[19]     c1        12
    x[19]     OBJ       -431
    x[20]     c1        189
    x[20]     OBJ       -975
    x[21]     c1        701
    x[21]     OBJ       -580
    x[22]     c1        704
    x[22]     OBJ       -402
    x[23]     c1        659
    x[23]     OBJ       -462
    x[24]     c1        119
    x[24]     OBJ       -272
    x[25]     c1        198
    x[25]     OBJ       -844
    x[26]     c1        810
    x[26]     OBJ       -832
    x[27]     c1        210
    x[27]     OBJ       -469
    x[28]     c1        28
    x[28]     OBJ       -333
    x[29]     c1        696
    x[29]     OBJ       -977
    x[30]     c1        117
    x[30]     OBJ       -973
    x[31]     c1        451
    x[31]     OBJ       -863
    x[32]     c1        596
    x[32]     OBJ       -962
    x[33]     c1        505
    x[33]     OBJ       -874
    x[34]     c1        336
    x[34]     OBJ       -152
    x[35]     c1        390
    x[35]     OBJ       -62
    x[36]     c1        901
    x[36]     OBJ       -988
    x[37]     c1        118
    x[37]     OBJ       -742
    x[38]     c1        13
    x[38]     OBJ       -631
    x[39]     c1        561
    x[39]     OBJ       -927
    x[40]     c1        771
    x[40]     OBJ       -299
    x[41]     c1        566
    x[41]     OBJ       -173
    x[42]     c1        526
    x[42]     OBJ       -367
    x[43]     c1        63
    x[43]     OBJ       -993
    x[44]     c1        334
    x[44]     OBJ       -690
    x[45]     c1        202
    x[45]     OBJ       -115
    x[46]     c1        367
    x[46]     OBJ       -420
    x[47]     c1        848
    x[47]     OBJ       -985
    x[48]     c1        149
    x[48]     OBJ       -761
    x[49]     c1        120
    x[49]     OBJ       -753
    x[50]     c1        427
    x[50]     OBJ       -748
    x[51]     c1        872
    x[51]     OBJ       -347
    x[52]     c1        216
    x[52]     OBJ       -225
    x[53]     c1        472
    x[53]     OBJ       -693
    x[54]     c1        326
    x[54]     OBJ       -302
    x[55]     c1        534
    x[55]     OBJ       -263
    x[56]     c1        203
    x[56]     OBJ       -316
    x[57]     c1        848
    x[57]     OBJ       -656
    x[58]     c1        600
    x[58]     OBJ       -914
    x[59]     c1        507
    x[59]     OBJ       -341
    x[60]     c1        710
    x[60]     OBJ       -819
    x[61]     c1        963
    x[61]     OBJ       -686
    x[62]     c1        222
    x[62]     OBJ       -324
    x[63]     c1        295
    x[63]     OBJ       -4
    x[64]     c1        968
    x[64]     OBJ       -183
    x[65]     c1        975
    x[65]     OBJ       -19
    x[66]     c1        30
    x[66]     OBJ       -844
    x[67]     c1        963
    x[67]     OBJ       -690
    x[68]     c1        884
    x[68]     OBJ       -32
    x[69]     c1        794
    x[69]     OBJ       -344
    x[70]     c1        198
    x[70]     OBJ       -872
    x[71]     c1        114
    x[71]     OBJ       -247
    x[72]     c1        415
    x[72]     OBJ       -4
    x[73]     c1        239
    x[73]     OBJ       -750
    x[74]     c1        589
    x[74]     OBJ       -162
    x[75]     c1        698
    x[75]     OBJ       -323
    x[76]     c1        924
    x[76]     OBJ       -119
    x[77]     c1        630
    x[77]     OBJ       -340
    x[78]     c1        575
    x[78]     OBJ       -641
    x[79]     c1        532
    x[79]     OBJ       -511
    x[80]     c1        404
    x[80]     OBJ       -206
    x[81]     c1        981
    x[81]     OBJ       -765
    x[82]     c1        370
    x[82]     OBJ       -857
    x[83]     c1        996
    x[83]     OBJ       -367
    x[84]     c1        915
    x[84]     OBJ       -404
    x[85]     c1        171
    x[85]     OBJ       -303
    x[86]     c1        26
    x[86]     OBJ       -53
    x[87]     c1        834
    x[87]     OBJ       -299
    x[88]     c1        325
    x[88]     OBJ       -2
    x[89]     c1        518
    x[89]     OBJ       -236
    x[90]     c1        61
    x[90]     OBJ       -275
    x[91]     c1        372
    x[91]     OBJ       -384
    x[92]     c1        860
    x[92]     OBJ       -604
    x[93]     c1        343
    x[93]     OBJ       -288
    x[94]     c1        316
    x[94]     OBJ       -290
    x[95]     c1        325
    x[95]     OBJ       -170
    x[96]     c1        100
    x[96]     OBJ       -142
    x[97]     c1        580
    x[97]     OBJ       -490
    x[98]     c1        110
    x[98]     OBJ       -831
    x[99]     c1        726
    x[99]     OBJ       -644
    x[100]    c1        344
    x[100]    OBJ       -353
RHS
    rhs       c1        24068
RANGES
BOUNDS
 LO bounds    x[1]      0
 PL bounds    x[1]
 LO bounds    x[2]      0
 PL bounds    x[2]
 LO bounds    x[3]      0
 PL bounds    x[3]
 LO bounds    x[4]      0
 PL bounds    x[4]
 LO bounds    x[5]      0
 PL bounds    x[5]
 LO bounds    x[6]      0
 PL bounds    x[6]
 LO bounds    x[7]      0
 PL bounds    x[7]
 LO bounds    x[8]      0
 PL bounds    x[8]
 LO bounds    x[9]      0
 PL bounds    x[9]
 LO bounds    x[10]     0
 PL bounds    x[10]
 LO bounds    x[11]     0
 PL bounds    x[11]
 LO bounds    x[12]     0
 PL bounds    x[12]
 LO bounds    x[13]     0
 PL bounds    x[13]
 LO bounds    x[14]     0
 PL bounds    x[14]
 LO bounds    x[15]     0
 PL bounds    x[15]
 LO bounds    x[16]     0
 PL bounds    x[16]
 LO bounds    x[17]     0
 PL bounds    x[17]
 LO bounds    x[18]     0
 PL bounds    x[18]
 LO bounds    x[19]     0
 PL bounds    x[19]
 LO bounds    x[20]     0
 PL bounds    x[20]
 LO bounds    x[21]     0
 PL bounds    x[21]
 LO bounds    x[22]     0
 PL bounds    x[22]
 LO bounds    x[23]     0
 PL bounds    x[23]
 LO bounds    x[24]     0
 PL bounds    x[24]
 LO bounds    x[25]     0
 PL bounds    x[25]
 LO bounds    x[26]     0
 PL bounds    x[26]
 LO bounds    x[27]     0
 PL bounds    x[27]
 LO bounds    x[28]     0
 PL bounds    x[28]
 LO bounds    x[29]     0
 PL bounds    x[29]
 LO bounds    x[30]     0
 PL bounds    x[30]
 LO bounds    x[31]     0
 PL bounds    x[31]
 LO bounds    x[32]     0
 PL bounds    x[32]
 LO bounds    x[33]     0
 PL bounds    x[33]
 LO bounds    x[34]     0
 PL bounds    x[34]
 LO bounds    x[35]     0
 PL bounds    x[35]
 LO bounds    x[36]     0
 PL bounds    x[36]
 LO bounds    x[37]     0
 PL bounds    x[37]
 LO bounds    x[38]     0
 PL bounds    x[38]
 LO bounds    x[39]     0
 PL bounds    x[39]
 LO bounds    x[40]     0
 PL bounds    x[40]
 LO bounds    x[41]     0
 PL bounds    x[41]
 LO bounds    x[42]     0
 PL bounds    x[42]
 LO bounds    x[43]     0
 PL bounds    x[43]
 LO bounds    x[44]     0
 PL bounds    x[44]
 LO bounds    x[45]     0
 PL bounds    x[45]
 LO bounds    x[46]     0
 PL bounds    x[46]
 LO bounds    x[47]     0
 PL bounds    x[47]
 LO bounds    x[48]     0
 PL bounds    x[48]
 LO bounds    x[49]     0
 PL bounds    x[49]
 LO bounds    x[50]     0
 PL bounds    x[50]
 LO bounds    x[51]     0
 PL bounds    x[51]
 LO bounds    x[52]     0
 PL bounds    x[52]
 LO bounds    x[53]     0
 PL bounds    x[53]
 LO bounds    x[54]     0
 PL bounds    x[54]
 LO bounds    x[55]     0
 PL bounds    x[55]
 LO bounds    x[56]     0
 PL bounds    x[56]
 LO bounds    x[57]     0
 PL bounds    x[57]
 LO bounds    x[58]     0
 PL bounds    x[58]
 LO bounds    x[59]     0
 PL bounds    x[59]
 LO bounds    x[60]     0
 PL bounds    x[60]
 LO bounds    x[61]     0
 PL bounds    x[61]
 LO bounds    x[62]     0
 PL bounds    x[62]
 LO bounds    x[63]     0
 PL bounds    x[63]
 LO bounds    x[64]     0
 PL bounds    x[64]
 LO bounds    x[65]     0
 PL bounds    x[65]
 LO bounds    x[66]     0
 PL bounds    x[66]
 LO bounds    x[67]     0
 PL bounds    x[67]
 LO bounds    x[68]     0
 PL bounds    x[68]
 LO bounds    x[69]     0
 PL bounds    x[69]
 LO bounds    x[70]     0
 PL bounds    x[70]
 LO bounds    x[71]     0
 PL bounds    x[71]
 LO bounds    x[72]     0
 PL bounds    x[72]
 LO bounds    x[73]     0
 PL bounds    x[73]
 LO bounds    x[74]     0
 PL bounds    x[74]
 LO bounds    x[75]     0
 PL bounds    x[75]
 LO bounds    x[76]     0
 PL bounds    x[76]
 LO bounds    x[77]     0
 PL bounds    x[77]
 LO bounds    x[78]     0
 PL bounds    x[78]
 LO bounds    x[79]     0
 PL bounds    x[79]
 LO bounds    x[80]     0
 PL bounds    x[80]
 LO bounds    x[81]     0
 PL bounds    x[81]
 LO bounds    x[82]     0
 PL bounds    x[82]
 LO bounds    x[83]     0
 PL bounds    x[83]
 LO bounds    x[84]     0
 PL bounds    x[84]
 LO bounds    x[85]     0
 PL bounds    x[85]
 LO bounds    x[86]     0
 PL bounds    x[86]
 LO bounds    x[87]     0
 PL bounds    x[87]
 LO bounds    x[88]     0
 PL bounds    x[88]
 LO bounds    x[89]     0
 PL bounds    x[89]
 LO bounds    x[90]     0
 PL bounds    x[90]
 LO bounds    x[91]     0
 PL bounds    x[91]
 LO bounds    x[92]     0
 PL bounds    x[92]
 LO bounds    x[93]     0
 PL bounds    x[93]
 LO bounds    x[94]     0
 PL bounds    x[94]
 LO bounds    x[95]     0
 PL bounds    x[95]
 LO bounds    x[96]     0
 PL bounds    x[96]
 LO bounds    x[97]     0
 PL bounds    x[97]
 LO bounds    x[98]     0
 PL bounds    x[98]
 LO bounds    x[99]     0
 PL bounds    x[99]
 LO bounds    x[100]    0
 PL bounds    x[100]
ENDATA
